(declare-const temp_init Int)
(declare-const bob_init Int)
(declare-const samantha_init Int)
(declare-const c_0 Int)
(declare-const c_1 Int)
(declare-const c_2 Int)
(declare-const c_3 Int)
(declare-const c_4 Int)
(declare-const c_5 Int)
(declare-const c_6 Int)
(declare-const c_7 Int)
(assert (< c_0 0))
(assert (and (>= (+ (* 1 c_1 ) (* (- 1) temp_init ) ) 0) (>= (+ (* (- 1) c_1 ) (* 1 temp_init ) ) 0) (>= (+ (* (- 1) bob_init ) (* 1 c_2 ) ) 0) (>= (+ (* 1 bob_init ) (* (- 1) c_2 ) ) 0) (>= (+ (* 1 c_3 ) (* (- 1) samantha_init ) ) 0) (>= (+ (* (- 1) c_3 ) (* 1 samantha_init ) ) 0) ))
(assert (forall ((temp Real) (bob Real) (samantha Real) ) (=> (and (>= (+ (* 1 c_1 ) (* (- 1) temp ) ) 0) (>= (+ (* (- 1) c_1 ) (* 1 temp ) ) 0) (>= (+ (* (- 1) bob ) (* 1 c_2 ) ) 0) (>= (+ (* 1 bob ) (* (- 1) c_2 ) ) 0) (>= (+ (* 1 c_3 ) (* (- 1) samantha ) ) 0) (>= (+ (* (- 1) c_3 ) (* 1 samantha ) ) 0) ) (>= (+ (* 1 c_4 ) (* 13 c_5 ) (* 17 c_6 ) (* 1 c_7 temp ) ) 0) )))
(assert (forall ((temp Real) (bob Real) (samantha Real) ) (=> (and (>= (+ (* 99 1) (* (- 1) bob ) (* (- 1) samantha ) ) 0) (>= (+ (* 1 bob c_5 ) (* 1 c_4 ) (* 1 c_6 samantha ) (* 1 c_7 temp ) ) 0) ) (>= (+ (* 1 bob c_6 ) (* 1 bob c_7 ) (* 1 c_4 ) (* 1 c_5 samantha ) ) 0) )))
(assert (forall ((temp Real) (bob Real) (samantha Real) ) (=> (and (>= (+ (* (- 100) 1) (* 1 bob ) (* 1 samantha ) ) 0) (>= (+ (* 1 bob c_5 ) (* 1 c_4 ) (* 1 c_6 samantha ) (* 1 c_7 temp ) ) 0) ) (>= (* 1 c_0 ) 0) )))
(check-sat)
(get-model)

